<number of tasks>
50

<cycle time>
1000

<order strength>
0.196


<task times>
1 538
2 375
3 436
4 132
5 516
6 420
7 281
8 477
9 99
10 65
11 31
12 163
13 139
14 61
15 67
16 261
17 261
18 349
19 191
20 62
21 122
22 44
23 107
24 52
25 54
26 221
27 96
28 220
29 23
30 359
31 141
32 224
33 75
34 272
35 33
36 478
37 265
38 259
39 286
40 191
41 509
42 79
43 270
44 372
45 603
46 533
47 248
48 22
49 86
50 115

<precedence relations>
5,8
5,9
7,10
8,13
8,14
8,16
9,11
9,12
9,15
10,49
11,18
11,29
13,19
13,21
13,24
14,17
14,22
15,20
15,39
16,18
16,23
17,30
18,26
18,28
19,26
19,29
21,27
22,25
25,31
26,33
29,34
29,45
30,32
30,35
30,36
31,40
31,41
31,44
32,42
33,39
33,45
34,40
34,44
35,38
35,43
36,37
36,43
39,46
41,48
43,47
44,50
45,49

<end>
